data/CPAIOR-23/opt-cryptoanalysis/mznc2017_aes_opt_r1.fzn
predicate fzn_table_int(array [int] of var int: x,array [int,int] of int: t);
array [1..873] of int: X_INTRODUCED_0_ = [0,0,0,0,0,0,0,0,0,0,0,0,1,0,0,1,1,2,0,0,0,1,0,1,1,1,2,0,0,0,1,1,0,0,1,2,0,0,0,1,1,1,0,1,2,0,0,1,0,0,0,1,1,3,0,0,1,0,0,1,0,1,2,0,0,1,0,0,1,1,0,3,0,0,1,0,1,0,1,0,3,0,0,1,0,1,1,0,0,3,0,0,1,0,1,1,0,1,3,0,0,1,0,1,1,1,0,3,0,0,1,1,0,0,0,1,3,0,0,1,1,0,0,1,1,3,0,0,1,1,0,1,0,0,3,0,0,1,1,0,1,1,0,2,0,0,1,1,0,1,1,1,3,0,0,1,1,1,0,1,0,3,0,0,1,1,1,0,1,1,3,0,1,0,0,0,1,0,1,2,0,1,0,0,0,1,1,0,3,0,1,0,0,0,1,1,1,3,0,1,0,0,1,0,0,1,3,0,1,0,0,1,0,1,0,3,0,1,0,0,1,1,0,0,3,0,1,0,0,1,1,1,0,3,0,1,0,1,0,0,0,1,3,0,1,0,1,0,1,0,0,3,0,1,0,1,1,0,0,1,3,0,1,0,1,1,0,1,0,3,0,1,0,1,1,0,1,1,3,0,1,0,1,1,1,0,0,2,0,1,0,1,1,1,0,1,3,0,1,1,0,0,0,1,0,3,0,1,1,0,0,1,1,0,3,0,1,1,0,1,0,0,0,3,0,1,1,0,1,0,1,1,2,0,1,1,0,1,1,0,0,3,0,1,1,0,1,1,1,1,2,0,1,1,1,0,0,0,1,2,0,1,1,1,0,0,1,0,3,0,1,1,1,0,1,1,0,3,0,1,1,1,1,0,0,0,3,0,1,1,1,1,1,0,0,3,0,1,1,1,1,1,1,1,2,1,0,0,0,0,0,1,1,3,1,0,0,0,0,1,1,1,3,1,0,0,0,1,0,0,1,3,1,0,0,0,1,0,1,1,2,1,0,0,0,1,1,0,1,3,1,0,0,0,1,1,1,1,2,1,0,0,1,0,0,1,0,3,1,0,0,1,0,1,0,0,2,1,0,0,1,0,1,1,0,3,1,0,0,1,1,0,0,0,3,1,0,0,1,1,1,0,0,3,1,0,0,1,1,1,1,0,2,1,0,1,0,0,0,1,0,3,1,0,1,0,0,0,1,1,3,1,0,1,0,0,1,0,1,2,1,0,1,0,1,0,0,0,3,1,0,1,0,1,0,1,0,3,1,0,1,0,1,1,0,1,3,1,0,1,0,1,1,1,0,3,1,0,1,1,0,0,0,1,3,1,0,1,1,0,1,0,0,3,1,0,1,1,1,0,0,0,2,1,0,1,1,1,0,0,1,3,1,0,1,1,1,0,1,0,3,1,0,1,1,1,0,1,1,3,1,0,1,1,1,1,0,1,3,1,1,0,0,0,0,1,0,3,1,1,0,0,0,1,0,1,2,1,1,0,0,0,1,1,1,3,1,1,0,0,1,0,0,0,3,1,1,0,0,1,0,0,1,3,1,1,0,0,1,0,1,0,3,1,1,0,0,1,1,1,0,3,1,1,0,1,0,0,0,1,3,1,1,0,1,0,0,1,0,2,1,1,0,1,0,0,1,1,3,1,1,0,1,0,1,0,0,3,1,1,0,1,0,1,1,1,3,1,1,0,1,1,0,1,0,3,1,1,0,1,1,0,1,1,3,1,1,1,0,0,0,1,0,3,1,1,1,0,0,0,1,1,3,1,1,1,0,0,1,1,0,3,1,1,1,0,0,1,1,1,3,1,1,1,0,1,0,0,0,3,1,1,1,0,1,0,0,1,3,1,1,1,0,1,1,0,0,3,1,1,1,0,1,1,0,1,3,1,1,1,1,0,0,0,1,2,1,1,1,1,0,1,0,0,2,1,1,1,1,1,1,1,0,2,1,1,1,1,1,1,1,1,2];
array [1..17] of int: X_INTRODUCED_231_ = [1,-1,-1,-1,-1,-1,-1,-1,-1,-1,-1,-1,-1,-1,-1,-1,-1];
var 0..1: X_INTRODUCED_2_;
var 0..1: X_INTRODUCED_3_;
var 0..1: X_INTRODUCED_4_;
var 0..1: X_INTRODUCED_5_;
var 0..1: X_INTRODUCED_6_;
var 0..1: X_INTRODUCED_7_;
var 0..1: X_INTRODUCED_8_;
var 0..1: X_INTRODUCED_9_;
var 0..1: X_INTRODUCED_10_;
var 0..1: X_INTRODUCED_11_;
var 0..1: X_INTRODUCED_12_;
var 0..1: X_INTRODUCED_13_;
var 0..1: X_INTRODUCED_14_;
var 0..1: X_INTRODUCED_15_;
var 0..1: X_INTRODUCED_16_;
var 0..1: X_INTRODUCED_17_;
var 0..1: X_INTRODUCED_18_;
var 0..1: X_INTRODUCED_19_;
var 0..1: X_INTRODUCED_20_;
var 0..1: X_INTRODUCED_21_;
var 0..1: X_INTRODUCED_22_;
var 0..1: X_INTRODUCED_23_;
var 0..1: X_INTRODUCED_24_;
var 0..1: X_INTRODUCED_25_;
var 0..1: X_INTRODUCED_26_;
var 0..1: X_INTRODUCED_27_;
var 0..1: X_INTRODUCED_28_;
var 0..1: X_INTRODUCED_29_;
var 0..1: X_INTRODUCED_30_;
var 0..1: X_INTRODUCED_31_;
var 0..1: X_INTRODUCED_32_;
var 0..1: X_INTRODUCED_33_;
var 0..1: X_INTRODUCED_34_;
var 0..1: X_INTRODUCED_35_;
var 0..1: X_INTRODUCED_36_;
var 0..1: X_INTRODUCED_37_;
var 0..1: X_INTRODUCED_38_;
var 0..1: X_INTRODUCED_39_;
var 0..1: X_INTRODUCED_40_;
var 0..1: X_INTRODUCED_41_;
var 0..1: X_INTRODUCED_42_;
var 0..1: X_INTRODUCED_43_;
var 0..1: X_INTRODUCED_44_;
var 0..1: X_INTRODUCED_45_;
var 0..1: X_INTRODUCED_46_;
var 0..1: X_INTRODUCED_47_;
var 0..1: X_INTRODUCED_48_;
var 0..1: X_INTRODUCED_49_;
var 0..1: X_INTRODUCED_50_;
var 0..1: X_INTRODUCED_51_;
var 0..1: X_INTRODUCED_52_;
var 0..1: X_INTRODUCED_53_;
var 0..1: X_INTRODUCED_54_;
var 0..1: X_INTRODUCED_55_;
var 0..1: X_INTRODUCED_56_;
var 0..1: X_INTRODUCED_57_;
var 0..1: X_INTRODUCED_58_;
var 0..1: X_INTRODUCED_59_;
var 0..1: X_INTRODUCED_60_;
var 0..1: X_INTRODUCED_61_;
var 0..1: X_INTRODUCED_62_;
var 0..1: X_INTRODUCED_63_;
var 0..1: X_INTRODUCED_64_;
var 0..1: X_INTRODUCED_65_;
var 0..1: X_INTRODUCED_66_;
var 0..1: X_INTRODUCED_67_;
var 0..1: X_INTRODUCED_68_;
var 0..1: X_INTRODUCED_69_;
var 0..1: X_INTRODUCED_70_;
var 0..1: X_INTRODUCED_71_;
var 0..1: X_INTRODUCED_72_;
var 0..1: X_INTRODUCED_73_;
var 0..1: X_INTRODUCED_74_;
var 0..1: X_INTRODUCED_75_;
var 0..1: X_INTRODUCED_76_;
var 0..1: X_INTRODUCED_77_;
var 0..1: X_INTRODUCED_78_;
var 0..1: X_INTRODUCED_79_;
var 0..1: X_INTRODUCED_80_;
var 0..1: X_INTRODUCED_81_;
var 0..1: X_INTRODUCED_82_;
var 0..1: X_INTRODUCED_83_;
var 0..1: X_INTRODUCED_84_;
var 0..1: X_INTRODUCED_85_;
var 0..1: X_INTRODUCED_86_;
var 0..1: X_INTRODUCED_87_;
var 0..1: X_INTRODUCED_88_;
var 0..1: X_INTRODUCED_89_;
var 0..1: X_INTRODUCED_90_;
var 0..1: X_INTRODUCED_91_;
var 0..1: X_INTRODUCED_92_;
var 0..1: X_INTRODUCED_93_;
var 0..1: X_INTRODUCED_94_;
var 0..1: X_INTRODUCED_95_;
var 0..1: X_INTRODUCED_96_;
var 0..1: X_INTRODUCED_97_;
var 0..1: X_INTRODUCED_98_;
var 0..1: X_INTRODUCED_99_;
var 0..1: X_INTRODUCED_100_;
var 0..1: X_INTRODUCED_101_;
var 0..1: X_INTRODUCED_102_;
var 0..1: X_INTRODUCED_103_;
var 0..1: X_INTRODUCED_104_;
var 0..1: X_INTRODUCED_105_;
var 0..1: X_INTRODUCED_106_;
var 0..1: X_INTRODUCED_107_;
var 0..1: X_INTRODUCED_108_;
var 0..1: X_INTRODUCED_109_;
var 0..1: X_INTRODUCED_110_;
var 0..1: X_INTRODUCED_111_;
var 0..1: X_INTRODUCED_112_;
var 0..1: X_INTRODUCED_113_;
var 0..1: X_INTRODUCED_114_;
var 0..1: X_INTRODUCED_115_;
var 0..1: X_INTRODUCED_116_;
var 0..1: X_INTRODUCED_117_;
var 0..1: X_INTRODUCED_118_;
var 0..1: X_INTRODUCED_119_;
var 0..1: X_INTRODUCED_120_;
var 0..1: X_INTRODUCED_121_;
var 0..1: X_INTRODUCED_122_;
var 0..1: X_INTRODUCED_123_;
var 0..1: X_INTRODUCED_124_;
var 0..1: X_INTRODUCED_125_;
var 0..1: X_INTRODUCED_126_;
var 0..1: X_INTRODUCED_127_;
var 0..1: X_INTRODUCED_128_;
var 0..1: X_INTRODUCED_129_;
var {0,2}: X_INTRODUCED_194_;
var {0,2}: X_INTRODUCED_195_;
var {0,2}: X_INTRODUCED_196_;
var {0,2}: X_INTRODUCED_197_;
var {0,2}: X_INTRODUCED_198_;
var {0,2}: X_INTRODUCED_199_;
var {0,2}: X_INTRODUCED_200_;
var {0,2}: X_INTRODUCED_201_;
var {0,2}: X_INTRODUCED_202_;
var {0,2}: X_INTRODUCED_203_;
var {0,2}: X_INTRODUCED_204_;
var {0,2}: X_INTRODUCED_205_;
var {0,2}: X_INTRODUCED_206_;
var {0,2}: X_INTRODUCED_207_;
var {0,2}: X_INTRODUCED_208_;
var {0,2}: X_INTRODUCED_209_;
var 1..48: objective:: output_var:: is_defined_var;
array [1..128] of var int: x:: output_array([0..1,0..63]) = [X_INTRODUCED_2_,X_INTRODUCED_3_,X_INTRODUCED_4_,X_INTRODUCED_5_,X_INTRODUCED_6_,X_INTRODUCED_7_,X_INTRODUCED_8_,X_INTRODUCED_9_,X_INTRODUCED_10_,X_INTRODUCED_11_,X_INTRODUCED_12_,X_INTRODUCED_13_,X_INTRODUCED_14_,X_INTRODUCED_15_,X_INTRODUCED_16_,X_INTRODUCED_17_,X_INTRODUCED_18_,X_INTRODUCED_19_,X_INTRODUCED_20_,X_INTRODUCED_21_,X_INTRODUCED_22_,X_INTRODUCED_23_,X_INTRODUCED_24_,X_INTRODUCED_25_,X_INTRODUCED_26_,X_INTRODUCED_27_,X_INTRODUCED_28_,X_INTRODUCED_29_,X_INTRODUCED_30_,X_INTRODUCED_31_,X_INTRODUCED_32_,X_INTRODUCED_33_,X_INTRODUCED_34_,X_INTRODUCED_35_,X_INTRODUCED_36_,X_INTRODUCED_37_,X_INTRODUCED_38_,X_INTRODUCED_39_,X_INTRODUCED_40_,X_INTRODUCED_41_,X_INTRODUCED_42_,X_INTRODUCED_43_,X_INTRODUCED_44_,X_INTRODUCED_45_,X_INTRODUCED_46_,X_INTRODUCED_47_,X_INTRODUCED_48_,X_INTRODUCED_49_,X_INTRODUCED_50_,X_INTRODUCED_51_,X_INTRODUCED_52_,X_INTRODUCED_53_,X_INTRODUCED_54_,X_INTRODUCED_55_,X_INTRODUCED_56_,X_INTRODUCED_57_,X_INTRODUCED_58_,X_INTRODUCED_59_,X_INTRODUCED_60_,X_INTRODUCED_61_,X_INTRODUCED_62_,X_INTRODUCED_63_,X_INTRODUCED_64_,X_INTRODUCED_65_,X_INTRODUCED_66_,X_INTRODUCED_67_,X_INTRODUCED_68_,X_INTRODUCED_69_,X_INTRODUCED_70_,X_INTRODUCED_71_,X_INTRODUCED_72_,X_INTRODUCED_73_,X_INTRODUCED_74_,X_INTRODUCED_75_,X_INTRODUCED_76_,X_INTRODUCED_77_,X_INTRODUCED_78_,X_INTRODUCED_79_,X_INTRODUCED_80_,X_INTRODUCED_81_,X_INTRODUCED_82_,X_INTRODUCED_83_,X_INTRODUCED_84_,X_INTRODUCED_85_,X_INTRODUCED_86_,X_INTRODUCED_87_,X_INTRODUCED_88_,X_INTRODUCED_89_,X_INTRODUCED_90_,X_INTRODUCED_91_,X_INTRODUCED_92_,X_INTRODUCED_93_,X_INTRODUCED_94_,X_INTRODUCED_95_,X_INTRODUCED_96_,X_INTRODUCED_97_,X_INTRODUCED_98_,X_INTRODUCED_99_,X_INTRODUCED_100_,X_INTRODUCED_101_,X_INTRODUCED_102_,X_INTRODUCED_103_,X_INTRODUCED_104_,X_INTRODUCED_105_,X_INTRODUCED_106_,X_INTRODUCED_107_,X_INTRODUCED_108_,X_INTRODUCED_109_,X_INTRODUCED_110_,X_INTRODUCED_111_,X_INTRODUCED_112_,X_INTRODUCED_113_,X_INTRODUCED_114_,X_INTRODUCED_115_,X_INTRODUCED_116_,X_INTRODUCED_117_,X_INTRODUCED_118_,X_INTRODUCED_119_,X_INTRODUCED_120_,X_INTRODUCED_121_,X_INTRODUCED_122_,X_INTRODUCED_123_,X_INTRODUCED_124_,X_INTRODUCED_125_,X_INTRODUCED_126_,X_INTRODUCED_127_,X_INTRODUCED_128_,X_INTRODUCED_129_];
array [1..64] of var int: xp:: output_array([0..0,0..63]) = [X_INTRODUCED_2_,X_INTRODUCED_6_,X_INTRODUCED_10_,X_INTRODUCED_14_,X_INTRODUCED_18_,X_INTRODUCED_22_,X_INTRODUCED_26_,X_INTRODUCED_30_,X_INTRODUCED_34_,X_INTRODUCED_38_,X_INTRODUCED_42_,X_INTRODUCED_46_,X_INTRODUCED_50_,X_INTRODUCED_54_,X_INTRODUCED_58_,X_INTRODUCED_62_,X_INTRODUCED_3_,X_INTRODUCED_7_,X_INTRODUCED_11_,X_INTRODUCED_15_,X_INTRODUCED_19_,X_INTRODUCED_23_,X_INTRODUCED_27_,X_INTRODUCED_31_,X_INTRODUCED_35_,X_INTRODUCED_39_,X_INTRODUCED_43_,X_INTRODUCED_47_,X_INTRODUCED_51_,X_INTRODUCED_55_,X_INTRODUCED_59_,X_INTRODUCED_63_,X_INTRODUCED_4_,X_INTRODUCED_8_,X_INTRODUCED_12_,X_INTRODUCED_16_,X_INTRODUCED_20_,X_INTRODUCED_24_,X_INTRODUCED_28_,X_INTRODUCED_32_,X_INTRODUCED_36_,X_INTRODUCED_40_,X_INTRODUCED_44_,X_INTRODUCED_48_,X_INTRODUCED_52_,X_INTRODUCED_56_,X_INTRODUCED_60_,X_INTRODUCED_64_,X_INTRODUCED_5_,X_INTRODUCED_9_,X_INTRODUCED_13_,X_INTRODUCED_17_,X_INTRODUCED_21_,X_INTRODUCED_25_,X_INTRODUCED_29_,X_INTRODUCED_33_,X_INTRODUCED_37_,X_INTRODUCED_41_,X_INTRODUCED_45_,X_INTRODUCED_49_,X_INTRODUCED_53_,X_INTRODUCED_57_,X_INTRODUCED_61_,X_INTRODUCED_65_];
array [1..16] of var int: prb:: output_array([0..15]) = [X_INTRODUCED_194_,X_INTRODUCED_195_,X_INTRODUCED_196_,X_INTRODUCED_197_,X_INTRODUCED_198_,X_INTRODUCED_199_,X_INTRODUCED_200_,X_INTRODUCED_201_,X_INTRODUCED_202_,X_INTRODUCED_203_,X_INTRODUCED_204_,X_INTRODUCED_205_,X_INTRODUCED_206_,X_INTRODUCED_207_,X_INTRODUCED_208_,X_INTRODUCED_209_];
array [1..128] of var int: X_INTRODUCED_210_ ::var_is_introduced  = [X_INTRODUCED_2_,X_INTRODUCED_3_,X_INTRODUCED_4_,X_INTRODUCED_5_,X_INTRODUCED_6_,X_INTRODUCED_7_,X_INTRODUCED_8_,X_INTRODUCED_9_,X_INTRODUCED_10_,X_INTRODUCED_11_,X_INTRODUCED_12_,X_INTRODUCED_13_,X_INTRODUCED_14_,X_INTRODUCED_15_,X_INTRODUCED_16_,X_INTRODUCED_17_,X_INTRODUCED_18_,X_INTRODUCED_19_,X_INTRODUCED_20_,X_INTRODUCED_21_,X_INTRODUCED_22_,X_INTRODUCED_23_,X_INTRODUCED_24_,X_INTRODUCED_25_,X_INTRODUCED_26_,X_INTRODUCED_27_,X_INTRODUCED_28_,X_INTRODUCED_29_,X_INTRODUCED_30_,X_INTRODUCED_31_,X_INTRODUCED_32_,X_INTRODUCED_33_,X_INTRODUCED_34_,X_INTRODUCED_35_,X_INTRODUCED_36_,X_INTRODUCED_37_,X_INTRODUCED_38_,X_INTRODUCED_39_,X_INTRODUCED_40_,X_INTRODUCED_41_,X_INTRODUCED_42_,X_INTRODUCED_43_,X_INTRODUCED_44_,X_INTRODUCED_45_,X_INTRODUCED_46_,X_INTRODUCED_47_,X_INTRODUCED_48_,X_INTRODUCED_49_,X_INTRODUCED_50_,X_INTRODUCED_51_,X_INTRODUCED_52_,X_INTRODUCED_53_,X_INTRODUCED_54_,X_INTRODUCED_55_,X_INTRODUCED_56_,X_INTRODUCED_57_,X_INTRODUCED_58_,X_INTRODUCED_59_,X_INTRODUCED_60_,X_INTRODUCED_61_,X_INTRODUCED_62_,X_INTRODUCED_63_,X_INTRODUCED_64_,X_INTRODUCED_65_,X_INTRODUCED_2_,X_INTRODUCED_6_,X_INTRODUCED_10_,X_INTRODUCED_14_,X_INTRODUCED_18_,X_INTRODUCED_22_,X_INTRODUCED_26_,X_INTRODUCED_30_,X_INTRODUCED_34_,X_INTRODUCED_38_,X_INTRODUCED_42_,X_INTRODUCED_46_,X_INTRODUCED_50_,X_INTRODUCED_54_,X_INTRODUCED_58_,X_INTRODUCED_62_,X_INTRODUCED_3_,X_INTRODUCED_7_,X_INTRODUCED_11_,X_INTRODUCED_15_,X_INTRODUCED_19_,X_INTRODUCED_23_,X_INTRODUCED_27_,X_INTRODUCED_31_,X_INTRODUCED_35_,X_INTRODUCED_39_,X_INTRODUCED_43_,X_INTRODUCED_47_,X_INTRODUCED_51_,X_INTRODUCED_55_,X_INTRODUCED_59_,X_INTRODUCED_63_,X_INTRODUCED_4_,X_INTRODUCED_8_,X_INTRODUCED_12_,X_INTRODUCED_16_,X_INTRODUCED_20_,X_INTRODUCED_24_,X_INTRODUCED_28_,X_INTRODUCED_32_,X_INTRODUCED_36_,X_INTRODUCED_40_,X_INTRODUCED_44_,X_INTRODUCED_48_,X_INTRODUCED_52_,X_INTRODUCED_56_,X_INTRODUCED_60_,X_INTRODUCED_64_,X_INTRODUCED_5_,X_INTRODUCED_9_,X_INTRODUCED_13_,X_INTRODUCED_17_,X_INTRODUCED_21_,X_INTRODUCED_25_,X_INTRODUCED_29_,X_INTRODUCED_33_,X_INTRODUCED_37_,X_INTRODUCED_41_,X_INTRODUCED_45_,X_INTRODUCED_49_,X_INTRODUCED_53_,X_INTRODUCED_57_,X_INTRODUCED_61_,X_INTRODUCED_65_];
array [1..9] of var int: X_INTRODUCED_212_ ::var_is_introduced  = [X_INTRODUCED_2_,X_INTRODUCED_6_,X_INTRODUCED_10_,X_INTRODUCED_14_,X_INTRODUCED_66_,X_INTRODUCED_67_,X_INTRODUCED_68_,X_INTRODUCED_69_,X_INTRODUCED_194_];
array [1..9] of var int: X_INTRODUCED_213_ ::var_is_introduced  = [X_INTRODUCED_18_,X_INTRODUCED_22_,X_INTRODUCED_26_,X_INTRODUCED_30_,X_INTRODUCED_70_,X_INTRODUCED_71_,X_INTRODUCED_72_,X_INTRODUCED_73_,X_INTRODUCED_195_];
array [1..9] of var int: X_INTRODUCED_214_ ::var_is_introduced  = [X_INTRODUCED_34_,X_INTRODUCED_38_,X_INTRODUCED_42_,X_INTRODUCED_46_,X_INTRODUCED_74_,X_INTRODUCED_75_,X_INTRODUCED_76_,X_INTRODUCED_77_,X_INTRODUCED_196_];
array [1..9] of var int: X_INTRODUCED_215_ ::var_is_introduced  = [X_INTRODUCED_50_,X_INTRODUCED_54_,X_INTRODUCED_58_,X_INTRODUCED_62_,X_INTRODUCED_78_,X_INTRODUCED_79_,X_INTRODUCED_80_,X_INTRODUCED_81_,X_INTRODUCED_197_];
array [1..9] of var int: X_INTRODUCED_216_ ::var_is_introduced  = [X_INTRODUCED_3_,X_INTRODUCED_7_,X_INTRODUCED_11_,X_INTRODUCED_15_,X_INTRODUCED_82_,X_INTRODUCED_83_,X_INTRODUCED_84_,X_INTRODUCED_85_,X_INTRODUCED_198_];
array [1..9] of var int: X_INTRODUCED_217_ ::var_is_introduced  = [X_INTRODUCED_19_,X_INTRODUCED_23_,X_INTRODUCED_27_,X_INTRODUCED_31_,X_INTRODUCED_86_,X_INTRODUCED_87_,X_INTRODUCED_88_,X_INTRODUCED_89_,X_INTRODUCED_199_];
array [1..9] of var int: X_INTRODUCED_218_ ::var_is_introduced  = [X_INTRODUCED_35_,X_INTRODUCED_39_,X_INTRODUCED_43_,X_INTRODUCED_47_,X_INTRODUCED_90_,X_INTRODUCED_91_,X_INTRODUCED_92_,X_INTRODUCED_93_,X_INTRODUCED_200_];
array [1..9] of var int: X_INTRODUCED_219_ ::var_is_introduced  = [X_INTRODUCED_51_,X_INTRODUCED_55_,X_INTRODUCED_59_,X_INTRODUCED_63_,X_INTRODUCED_94_,X_INTRODUCED_95_,X_INTRODUCED_96_,X_INTRODUCED_97_,X_INTRODUCED_201_];
array [1..9] of var int: X_INTRODUCED_220_ ::var_is_introduced  = [X_INTRODUCED_4_,X_INTRODUCED_8_,X_INTRODUCED_12_,X_INTRODUCED_16_,X_INTRODUCED_98_,X_INTRODUCED_99_,X_INTRODUCED_100_,X_INTRODUCED_101_,X_INTRODUCED_202_];
array [1..9] of var int: X_INTRODUCED_221_ ::var_is_introduced  = [X_INTRODUCED_20_,X_INTRODUCED_24_,X_INTRODUCED_28_,X_INTRODUCED_32_,X_INTRODUCED_102_,X_INTRODUCED_103_,X_INTRODUCED_104_,X_INTRODUCED_105_,X_INTRODUCED_203_];
array [1..9] of var int: X_INTRODUCED_222_ ::var_is_introduced  = [X_INTRODUCED_36_,X_INTRODUCED_40_,X_INTRODUCED_44_,X_INTRODUCED_48_,X_INTRODUCED_106_,X_INTRODUCED_107_,X_INTRODUCED_108_,X_INTRODUCED_109_,X_INTRODUCED_204_];
array [1..9] of var int: X_INTRODUCED_223_ ::var_is_introduced  = [X_INTRODUCED_52_,X_INTRODUCED_56_,X_INTRODUCED_60_,X_INTRODUCED_64_,X_INTRODUCED_110_,X_INTRODUCED_111_,X_INTRODUCED_112_,X_INTRODUCED_113_,X_INTRODUCED_205_];
array [1..9] of var int: X_INTRODUCED_224_ ::var_is_introduced  = [X_INTRODUCED_5_,X_INTRODUCED_9_,X_INTRODUCED_13_,X_INTRODUCED_17_,X_INTRODUCED_114_,X_INTRODUCED_115_,X_INTRODUCED_116_,X_INTRODUCED_117_,X_INTRODUCED_206_];
array [1..9] of var int: X_INTRODUCED_225_ ::var_is_introduced  = [X_INTRODUCED_21_,X_INTRODUCED_25_,X_INTRODUCED_29_,X_INTRODUCED_33_,X_INTRODUCED_118_,X_INTRODUCED_119_,X_INTRODUCED_120_,X_INTRODUCED_121_,X_INTRODUCED_207_];
array [1..9] of var int: X_INTRODUCED_226_ ::var_is_introduced  = [X_INTRODUCED_37_,X_INTRODUCED_41_,X_INTRODUCED_45_,X_INTRODUCED_49_,X_INTRODUCED_122_,X_INTRODUCED_123_,X_INTRODUCED_124_,X_INTRODUCED_125_,X_INTRODUCED_208_];
array [1..9] of var int: X_INTRODUCED_227_ ::var_is_introduced  = [X_INTRODUCED_53_,X_INTRODUCED_57_,X_INTRODUCED_61_,X_INTRODUCED_65_,X_INTRODUCED_126_,X_INTRODUCED_127_,X_INTRODUCED_128_,X_INTRODUCED_129_,X_INTRODUCED_209_];
array [1..17] of var int: X_INTRODUCED_230_ ::var_is_introduced  = [objective,X_INTRODUCED_194_,X_INTRODUCED_195_,X_INTRODUCED_196_,X_INTRODUCED_197_,X_INTRODUCED_198_,X_INTRODUCED_199_,X_INTRODUCED_200_,X_INTRODUCED_201_,X_INTRODUCED_202_,X_INTRODUCED_203_,X_INTRODUCED_204_,X_INTRODUCED_205_,X_INTRODUCED_206_,X_INTRODUCED_207_,X_INTRODUCED_208_,X_INTRODUCED_209_];
constraint fzn_table_int(X_INTRODUCED_212_,X_INTRODUCED_0_);
constraint fzn_table_int(X_INTRODUCED_213_,X_INTRODUCED_0_);
constraint fzn_table_int(X_INTRODUCED_214_,X_INTRODUCED_0_);
constraint fzn_table_int(X_INTRODUCED_215_,X_INTRODUCED_0_);
constraint fzn_table_int(X_INTRODUCED_216_,X_INTRODUCED_0_);
constraint fzn_table_int(X_INTRODUCED_217_,X_INTRODUCED_0_);
constraint fzn_table_int(X_INTRODUCED_218_,X_INTRODUCED_0_);
constraint fzn_table_int(X_INTRODUCED_219_,X_INTRODUCED_0_);
constraint fzn_table_int(X_INTRODUCED_220_,X_INTRODUCED_0_);
constraint fzn_table_int(X_INTRODUCED_221_,X_INTRODUCED_0_);
constraint fzn_table_int(X_INTRODUCED_222_,X_INTRODUCED_0_);
constraint fzn_table_int(X_INTRODUCED_223_,X_INTRODUCED_0_);
constraint fzn_table_int(X_INTRODUCED_224_,X_INTRODUCED_0_);
constraint fzn_table_int(X_INTRODUCED_225_,X_INTRODUCED_0_);
constraint fzn_table_int(X_INTRODUCED_226_,X_INTRODUCED_0_);
constraint fzn_table_int(X_INTRODUCED_227_,X_INTRODUCED_0_);
constraint int_lin_eq(X_INTRODUCED_231_,X_INTRODUCED_230_,0):: defines_var(objective);
solve :: seq_search([int_search(X_INTRODUCED_210_,input_order,indomain_min,complete),int_search(prb,smallest,indomain_min,complete)]) minimize objective;
